(set-logic HORN)
(declare-fun inv ((_ BitVec 64) (_ BitVec 64) (_ BitVec 64) ) Bool)
(assert (forall ((n (_ BitVec 64)) (j (_ BitVec 64)) (k (_ BitVec 64))) 
       (=> ( and ( = j (_ bv0 64) ) ( bvsgt n (_ bv0 64) ) ( bvsgt k n ) ) (inv n j k))))
(assert (forall ((n (_ BitVec 64)) (j (_ BitVec 64)) (k (_ BitVec 64)) (n! (_ BitVec 64)) (j! (_ BitVec 64)) (k! (_ BitVec 64))) 
       (=> (and (inv n j k) ( or ( and ( bvslt j n ) ( = j! ( bvadd j (_ bv1 64) ) ) ( = k! ( bvsub k (_ bv1 64) ) ) ( = n! n ) ) ( and ( bvsge j n ) ( = j! j ) ( = k! k ) ( = n! n ) ) )) (inv n! j! k!))))
(assert (forall ((n (_ BitVec 64)) (j (_ BitVec 64)) (k (_ BitVec 64))) 
       (=> (inv n j k) ( => ( not ( bvslt j n ) ) ( bvsge k (_ bv0 64) ) ))))
(check-sat)
